36
hydrated reactant (waters relaxed)
O      -0.817617     -0.094105      1.978940
C      -0.950571     -0.124055      0.559110
C       0.258122      0.563420     -0.068784
N       1.310241      0.004818     -0.537399
C       1.397657     -1.457924     -0.550868
C       2.786043     -1.916525     -1.007120
O       3.751400     -1.433395     -0.072196
P       4.612403     -0.139190     -0.442036
O       5.226564      0.554374      0.718765
O       5.681608     -0.709046     -1.471081
O       3.699939      0.755659     -1.371059
C      -2.259680      0.574485      0.123412
O      -2.193692      1.956266      0.443705
C      -3.494346     -0.093909      0.794017
O      -3.503134      0.137255      2.199179
C      -4.811531      0.481788      0.248163
O      -4.913586      1.851610      0.603618
H       0.071511     -0.419684      2.201441
H      -0.998121     -1.178974      0.253452
H       0.234496      1.661567     -0.049946
H       0.647365     -1.878553     -1.229582
H       1.223590     -1.846545      0.460761
H       2.839703     -3.009666     -0.995274
H       3.011893     -1.572022     -2.018881
H       6.394343     -0.076188     -1.614286
H       2.790696      0.843081     -1.004938
H      -2.350042      0.484658     -0.973292
H      -3.108114      2.311229      0.407398
H      -3.476877     -1.177059      0.609769
H      -2.566738      0.169796      2.486093
H      -5.669262     -0.048509      0.683507
H      -4.868157      0.398922     -0.841929
H      -4.880598      1.860511      1.577900
O       2.627713      0.645044      2.147256
H       3.522610      0.526587      1.802221
H       2.677661      1.417056      2.722193
