36
hydrated product (waters relaxed)
O      -1.066553     -0.563207     -0.646267
C      -0.953447      0.482934      0.003365
C       0.405855      1.148507      0.231183
N       1.518698      0.261503     -0.192201
C       1.800205     -0.750358      0.856592
C       3.022852     -1.612153      0.502694
O       4.197169     -0.826983      0.620419
P       4.911200     -0.247261     -0.687490
O       5.955747      0.788949     -0.465258
O       5.450734     -1.566896     -1.410494
O       3.722838      0.186022     -1.657822
C      -2.165936      1.220017      0.573236
O      -2.003471      1.322403      1.985149
C      -3.476059      0.505016      0.162969
O      -3.526684     -0.826547      0.708137
C      -4.711422      1.234869      0.695766
O      -4.733510      1.132667      2.122875
H       0.518658      1.451574      1.276350
H       1.173742     -0.260903     -1.012732
H       0.432911      2.048084     -0.392366
H       0.931816     -1.404546      0.989888
H       2.000079     -0.237468      1.804924
H       3.106449     -2.433017      1.222168
H       2.932313     -2.056493     -0.494588
H       6.097769     -1.324459     -2.096500
H       3.047306      0.687752     -1.144764
H      -2.164923      2.233566      0.156729
H      -2.894331      1.240733      2.390050
H      -3.542628      0.428932     -0.928525
H      -2.783864     -1.316432      0.295319
H      -5.629892      0.771477      0.320859
H      -4.709878      2.292321      0.416235
H      -4.792098      0.168335      2.296007
O       3.378176      1.034534      2.942360
H       4.059887      0.576744      2.438572
H       3.706969      1.924386      3.106475
