36
hydrated reactant (waters relaxed)
O      -0.817618     -0.094106      1.978940
C      -0.950571     -0.124055      0.559110
C       0.258122      0.563420     -0.068784
N       1.310241      0.004818     -0.537399
C       1.397657     -1.457924     -0.550869
C       2.786043     -1.916524     -1.007120
O       3.751399     -1.433395     -0.072196
P       4.612403     -0.139190     -0.442036
O       5.226564      0.554374      0.718766
O       5.681608     -0.709046     -1.471081
O       3.699939      0.755659     -1.371058
C      -2.259680      0.574485      0.123412
O      -2.193692      1.956266      0.443706
C      -3.494347     -0.093909      0.794017
O      -3.503134      0.137254      2.199179
C      -4.811531      0.481788      0.248163
O      -4.913586      1.851610      0.603619
H       0.071511     -0.419685      2.201441
H      -0.998121     -1.178974      0.253451
H       0.234496      1.661567     -0.049945
H       0.647365     -1.878553     -1.229583
H       1.223590     -1.846545      0.460761
H       2.839703     -3.009666     -0.995275
H       3.011893     -1.572021     -2.018882
H       6.394343     -0.076187     -1.614286
H       2.790696      0.843081     -1.004938
H      -2.350042      0.484659     -0.973292
H      -3.108114      2.311229      0.407399
H      -3.476877     -1.177059      0.609768
H      -2.566738      0.169795      2.486093
H      -5.669262     -0.048509      0.683507
H      -4.868157      0.398923     -0.841929
H      -4.880598      1.860511      1.577900
O       2.627713      0.645044      2.147256
H       3.522610      0.526587      1.802221
H       2.677661      1.417056      2.722193
